;; sequence(s): A83295
;; terms: 1 0 16 ~96 832 ~6528 52480 ~419328 3355648 ~26843136 214749184 ~1717985280 13743898624 ~109951156224 879609315328 ~7036874391552 56294995394560 ~450359962632192 3602879702106112 ~28823037614751744
;; small program: loop(x + x, x, loop(2 * (2 - (x + x)), x, 1))
;; fast program: ((loop(0 - x, x mod 2, loop(x * x, 1, loop(x + x, x - 1, 2))) div (1 + (2 + 2))) + 1) * loop(x + x, x, 1)
(set-logic UFNIA)
(define-fun divf ((a Int) (b Int)) Int (ite (< 0 b) (div a b) (div (- a) (- b))))
(define-fun modf ((a Int) (b Int)) Int (ite (< 0 b) (mod a b) (- (mod (- a) (- b)))))
(declare-fun f0 (Int) Int)
(declare-fun g0 (Int) Int)
(declare-fun f1 (Int) Int)
(declare-fun g1 (Int) Int)
(declare-fun h1 () Int)
(declare-fun u1 (Int Int) Int)
(declare-fun v1 (Int) Int)
(declare-fun h0 (Int) Int)
(declare-fun u0 (Int Int) Int)
(declare-fun v0 (Int) Int)
(declare-fun small (Int) Int)
(declare-fun f2 (Int) Int)
(declare-fun g2 (Int) Int)
(declare-fun f3 (Int) Int)
(declare-fun g3 () Int)
(declare-fun f4 (Int) Int)
(declare-fun g4 (Int) Int)
(declare-fun h4 () Int)
(declare-fun u4 (Int Int) Int)
(declare-fun v4 (Int) Int)
(declare-fun h3 (Int) Int)
(declare-fun u3 (Int Int) Int)
(declare-fun v3 (Int) Int)
(declare-fun h2 (Int) Int)
(declare-fun u2 (Int Int) Int)
(declare-fun v2 (Int) Int)
(declare-fun f5 (Int) Int)
(declare-fun g5 (Int) Int)
(declare-fun h5 () Int)
(declare-fun u5 (Int Int) Int)
(declare-fun v5 (Int) Int)
(declare-fun fast (Int) Int)
(assert (forall ((x Int)) (= (f0 x) (+ x x))))
(assert (forall ((x Int)) (= (g0 x) x)))
(assert (forall ((x Int)) (= (f1 x) (* 2 (- 2 (+ x x))))))
(assert (forall ((x Int)) (= (g1 x) x)))
(assert (= h1 1))
(assert (forall ((x Int) (y Int)) (= (u1 x y) (ite (<= x 0) y (f1 (u1 (- x 1) y))))))
(assert (forall ((x Int)) (= (v1 x) (u1 (g1 x) h1))))
(assert (forall ((x Int)) (= (h0 x) (v1 x))))
(assert (forall ((x Int) (y Int)) (= (u0 x y) (ite (<= x 0) y (f0 (u0 (- x 1) y))))))
(assert (forall ((x Int)) (= (v0 x) (u0 (g0 x) (h0 x)))))
(assert (forall ((x Int)) (= (small x) (v0 x))))
(assert (forall ((x Int)) (= (f2 x) (- 0 x))))
(assert (forall ((x Int)) (= (g2 x) (modf x 2))))
(assert (forall ((x Int)) (= (f3 x) (* x x))))
(assert (= g3 1))
(assert (forall ((x Int)) (= (f4 x) (+ x x))))
(assert (forall ((x Int)) (= (g4 x) (- x 1))))
(assert (= h4 2))
(assert (forall ((x Int) (y Int)) (= (u4 x y) (ite (<= x 0) y (f4 (u4 (- x 1) y))))))
(assert (forall ((x Int)) (= (v4 x) (u4 (g4 x) h4))))
(assert (forall ((x Int)) (= (h3 x) (v4 x))))
(assert (forall ((x Int) (y Int)) (= (u3 x y) (ite (<= x 0) y (f3 (u3 (- x 1) y))))))
(assert (forall ((x Int)) (= (v3 x) (u3 g3 (h3 x)))))
(assert (forall ((x Int)) (= (h2 x) (v3 x))))
(assert (forall ((x Int) (y Int)) (= (u2 x y) (ite (<= x 0) y (f2 (u2 (- x 1) y))))))
(assert (forall ((x Int)) (= (v2 x) (u2 (g2 x) (h2 x)))))
(assert (forall ((x Int)) (= (f5 x) (+ x x))))
(assert (forall ((x Int)) (= (g5 x) x)))
(assert (= h5 1))
(assert (forall ((x Int) (y Int)) (= (u5 x y) (ite (<= x 0) y (f5 (u5 (- x 1) y))))))
(assert (forall ((x Int)) (= (v5 x) (u5 (g5 x) h5))))
(assert (forall ((x Int)) (= (fast x) (* (+ (divf (v2 x) (+ 1 (+ 2 2))) 1) (v5 x)))))
(assert (exists ((c Int)) (and (>= c 0) (not (= (small c) (fast c))))))
(check-sat)
